benchmark_str_length/p1_10_15-0.dzn
Alphabet = {A,C,G,T};
ns = 10;
nc = 15;
sl = 10;
neighbours = [| I(A),I(A),I(C),I(C),I(A),I(A),I(A),I(A),I(A),I(G),I(A),I(A),I(C),I(A),I(A) | I(A),I(A),I(A),I(A),I(A),I(A),I(A),I(A),I(A),I(A),I(A),I(A),I(A),I(A),I(A) | I(A),I(C),I(A),I(A),I(A),I(C),I(A),I(A),I(A),I(A),I(A),I(A),I(A),I(C),I(C) | I(C),I(A),I(A),I(A),I(A),I(A),I(A),I(A),I(A),I(C),I(C),I(C),I(A),I(A),I(A) | I(C),I(A),I(C),I(A),I(C),I(A),I(C),I(C),I(A),I(A),I(A),I(C),I(C),I(A),I(A) | I(A),I(A),I(G),I(A),I(A),I(A),I(A),I(A),I(A),I(A),I(A),I(A),I(A),I(A),I(G) | I(A),I(A),I(A),I(A),I(A),I(C),I(C),I(A),I(A),I(A),I(C),I(A),I(A),I(C),I(A) | I(A),I(A),I(A),I(A),I(C),I(A),I(C),I(A),I(A),I(C),I(C),I(C),I(G),I(C),I(A) | I(A),I(A),I(A),I(C),I(A),I(C),I(C),I(A),I(A),I(C),I(C),I(G),I(G),I(A),I(A) | I(A),I(C),I(C),I(A),I(A),I(A),I(A),I(A),I(C),I(A),I(A),I(A),I(A),I(A),I(A) |];
