benchmark_str_length/p1_10_15-0.txt
{
	"num_strings": 10,
	"alphabet": "ACGT",
	"strings": [
		"AACCAAAAAGAACAA",
		"AAAAAAAAAAAAAAA",
		"ACAAACAAAAAAACC",
		"CAAAAAAAACCCAAA",
		"CACACACCAAACCAA",
		"AAGAAAAAAAAAAAG",
		"AAAAACCAAACAACA",
		"AAAACACAACCCGCA",
		"AAACACCAACCGGAA",
		"ACCAAAAACAAAAAA"
	],
	"str_length":[15,15,15,15,15,15,15,15,15,15]
}